(set-info :smt-lib-version 2.6)
(set-logic QF_S)
(set-info :source |
Generated by: Murphy Berzish, Mitja Kulczynski, Federico Mora, Florin Manea, Joel Day, Dirk Nowotka, Vijay Ganesh, Zhengyang Lu
Generated on: 2020-10-01
Description: Translated from a collection of real-world regex queries, AutomataArk, collected by Loris D’Antoni and Fang Wang: https://github.com/lorisdanto/automatark
Application: Evaluate solvers on real-world regex queries
Target solver: Z3str3RE, CVC4, OSTRICH, Z3seq, Z3str3, Z3-Trau
Publications: Berzish, M., Kulczynski, M., Mora, F., Manea, F., Day, J. D., Nowotka, D., & Ganesh, V. (2021, July). An SMT solver for regular expressions and linear arithmetic over string length. In CAV 2021.
|)
(set-info :license "https://creativecommons.org/licenses/by/4.0/")
(set-info :category "industrial")
(set-info :status unsat)

(declare-const X String)
(assert (not (str.in_re X (re.++ (str.to_re "User-Agent:") (re.+ (re.union (str.to_re " ") (str.to_re "\u{9}") (str.to_re "\u{a}") (str.to_re "\u{c}") (str.to_re "\u{d}"))) (str.to_re "}{Password:\u{1b}") (re.+ (re.range "0" "9")) (str.to_re "information\u{a}")))))
(assert (str.in_re X (re.++ (str.to_re "Ts2/") (re.+ (re.union (str.to_re " ") (str.to_re "\u{9}") (str.to_re "\u{a}") (str.to_re "\u{c}") (str.to_re "\u{d}"))) (str.to_re "insert") (re.* re.allchar) (str.to_re "Host:HELOHourssurvey.asp?nUserId=\u{a}"))))
(assert (str.in_re X (re.++ (str.to_re "/") (re.opt (re.union (str.to_re "-") (str.to_re "+"))) (re.range "1" "9") (re.opt (re.union (re.* (re.range "0" "9")) (re.++ (re.opt ((_ re.loop 1 2) (re.range "0" "9"))) (str.to_re ",") (re.* (re.++ ((_ re.loop 3 3) (re.range "0" "9")) (str.to_re ","))) ((_ re.loop 3 3) (re.range "0" "9"))))) (re.opt (re.++ (re.union (str.to_re "e") (str.to_re "E")) (re.union (str.to_re "-") (str.to_re "+")) (re.+ (re.range "0" "9")))) (str.to_re "/\u{a}"))))
(assert (str.in_re X (re.++ (str.to_re "kl.search.need2find.com") (re.union (str.to_re " ") (str.to_re "\u{9}") (str.to_re "\u{a}") (str.to_re "\u{c}") (str.to_re "\u{d}")) (str.to_re "source%3Dultrasearch136%26campaign%3Dsnap\u{a}"))))
(assert (not (str.in_re X (re.++ (str.to_re "/") (re.* (re.union (re.++ (str.to_re "\u{22}") (re.* (re.union (str.to_re "\u{5c}\u{22}") (re.comp (str.to_re "\u{22}")))) (str.to_re "\u{22}")) (re.++ (str.to_re "'") (re.* (re.union (str.to_re "\u{5c}'") (re.comp (str.to_re "'")))) (str.to_re "'")) (re.comp (str.to_re "\u{a}")))) (str.to_re "\u{a}/gm\u{a}")))))
(check-sat)

(exit)
